data;


param d:= 100;
param r:=5;
param p:=0.100000;
param M:=1000;
param U:=
         1         1       -1.012059e+00
         2         1       -6.493951e-01
         3         1        4.389724e-01
         4         1       -5.354477e-01
         5         1       -1.556476e+00
         6         1       -3.937500e-01
         7         1        7.734208e-02
         8         1       -1.868170e+00
         9         1        9.632466e-01
        10         1       -1.171924e+00
        11         1        1.057517e+00
        12         1        7.682862e-01
        13         1        8.340414e-01
        14         1        8.122176e-01
        15         1        1.321150e-01
        16         1       -2.815283e-01
        17         1        8.521769e-01
        18         1        1.036436e+00
        19         1       -3.170665e-01
        20         1        1.014394e+00
        21         1        1.189463e+00
        22         1        2.609312e-02
        23         1        1.538156e+00
        24         1        8.457338e-01
        25         1       -7.813555e-02
        26         1       -7.165651e-01
        27         1        6.446316e-01
        28         1        1.439808e-01
        29         1       -9.672663e-01
        30         1       -2.026907e+00
        31         1       -1.840607e+00
        32         1       -4.067336e-02
        33         1       -3.175212e-01
        34         1        2.640724e+00
        35         1       -1.964299e-01
        36         1        3.012107e-01
        37         1       -5.506338e-01
        38         1       -8.132982e-01
        39         1       -1.952801e-01
        40         1        5.334634e-01
        41         1        1.057136e+00
        42         1        2.185317e+00
        43         1        6.858906e-01
        44         1        7.405604e-01
        45         1       -1.606422e+00
        46         1       -1.479302e+00
        47         1       -4.512116e-01
        48         1        1.034215e+00
        49         1       -8.214318e-01
        50         1       -6.120622e-02
        51         1        2.811037e-01
        52         1       -9.613180e-02
        53         1       -1.551251e-01
        54         1       -1.605927e-02
        55         1        4.300940e-01
        56         1       -3.374384e-01
        57         1       -9.332261e-01
        58         1        9.464172e-01
        59         1        4.221636e-01
        60         1        1.002606e+00
        61         1       -1.511342e+00
        62         1       -1.329854e+00
        63         1       -1.474436e-01
        64         1        6.982623e-01
        65         1        2.182623e+00
        66         1        1.755422e-01
        67         1        6.580596e-01
        68         1        1.247909e+00
        69         1       -5.130509e-01
        70         1       -8.009399e-01
        71         1       -1.705710e+00
        72         1        2.446863e-01
        73         1       -9.889540e-01
        74         1        1.057155e+00
        75         1        1.693764e-02
        76         1        7.786254e-01
        77         1        7.503880e-02
        78         1        1.414463e-01
        79         1        1.420963e-02
        80         1       -1.399192e+00
        81         1       -1.235766e+00
        82         1       -1.377472e+00
        83         1        4.726213e-01
        84         1        5.276844e-01
        85         1       -9.081669e-02
        86         1       -9.828505e-01
        87         1       -1.790300e+00
        88         1        3.084310e-01
        89         1        2.249854e-01
        90         1        4.234027e-02
        91         1        6.626193e-01
        92         1       -2.500987e-01
        93         1        1.132212e+00
        94         1        1.491091e-01
        95         1        6.114832e-01
        96         1       -1.139763e+00
        97         1        1.534373e+00
        98         1        6.086237e-01
        99         1        1.134275e+00
       100         1        1.550592e+00
         1         2       -2.911992e-02
         2         2       -6.222856e-01
         3         2       -1.457121e-01
         4         2        1.606981e+00
         5         2        7.288543e-01
         6         2       -5.671598e-01
         7         2        5.501978e-01
         8         2        3.453103e-01
         9         2       -1.173690e+00
        10         2       -1.165987e+00
        11         2       -1.301454e+00
        12         2        1.290487e+00
        13         2       -7.145505e-01
        14         2       -6.926328e-01
        15         2       -4.529991e-01
        16         2        4.256238e-01
        17         2        8.946123e-01
        18         2       -3.374789e-02
        19         2        1.418284e+00
        20         2       -1.425796e+00
        21         2       -9.214380e-01
        22         2       -1.963182e+00
        23         2        1.987406e-01
        24         2        1.142433e+00
        25         2        1.343650e+00
        26         2       -1.957549e-03
        27         2        1.255511e+00
        28         2       -2.823564e-01
        29         2        2.984210e-01
        30         2       -7.735636e-01
        31         2        8.186662e-01
        32         2        6.706625e-01
        33         2        6.052504e-01
        34         2       -1.680843e+00
        35         2        3.955004e-01
        36         2       -6.058831e-01
        37         2       -2.228029e+00
        38         2        6.963394e-01
        39         2       -1.085378e+00
        40         2       -5.968978e-01
        41         2       -1.215639e-02
        42         2       -1.421845e+00
        43         2        1.944182e+00
        44         2        7.023225e-01
        45         2       -2.228888e+00
        46         2        7.384461e-01
        47         2       -1.855974e-01
        48         2        1.168657e+00
        49         2       -7.319972e-01
        50         2        2.419678e-01
        51         2        6.000085e-01
        52         2       -7.963753e-01
        53         2        1.399675e+00
        54         2        4.889252e-01
        55         2        1.386581e+00
        56         2        5.072443e-01
        57         2       -6.954790e-01
        58         2        3.042245e-01
        59         2        1.323227e-01
        60         2        5.345382e-01
        61         2       -1.278416e+00
        62         2       -5.725767e-01
        63         2        1.988108e+00
        64         2       -1.214371e+00
        65         2        2.375480e-01
        66         2       -1.613618e+00
        67         2       -3.600598e-01
        68         2       -9.487325e-01
        69         2       -2.275970e-01
        70         2        7.550989e-01
        71         2        4.164825e-01
        72         2        1.622474e+00
        73         2       -5.110327e-01
        74         2        7.717939e-02
        75         2       -1.552777e+00
        76         2        2.260163e+00
        77         2        1.092136e+00
        78         2        1.612197e+00
        79         2        5.829183e-01
        80         2        7.248971e-01
        81         2        1.169195e+00
        82         2        5.788691e-01
        83         2        5.562795e-01
        84         2       -9.348008e-01
        85         2       -1.294602e+00
        86         2        9.575044e-01
        87         2       -1.502280e+00
        88         2        1.714512e-01
        89         2       -2.186153e-02
        90         2        1.443772e-01
        91         2       -1.853651e-01
        92         2        8.838825e-01
        93         2       -1.472556e-01
        94         2       -8.516609e-02
        95         2       -1.283272e-01
        96         2       -4.566252e-01
        97         2        5.261439e-01
        98         2        5.736153e-01
        99         2        3.256616e-01
       100         2        5.752555e-01
         1         3       -5.095800e-01
         2         3       -1.255537e-01
         3         3        7.932034e-01
         4         3       -1.065323e+00
         5         3        5.144241e-01
         6         3        4.236254e-01
         7         3        2.130978e+00
         8         3       -1.445514e+00
         9         3        3.785365e-01
        10         3       -1.519144e+00
        11         3       -8.827566e-01
        12         3       -4.426953e-01
        13         3       -1.610812e-01
        14         3       -1.602135e+00
        15         3       -3.325639e-01
        16         3       -3.358288e-01
        17         3       -7.622580e-01
        18         3        6.846363e-01
        19         3        3.954057e-01
        20         3       -1.240814e+00
        21         3        5.902547e-01
        22         3        2.235677e-01
        23         3       -1.489140e+00
        24         3       -2.478871e+00
        25         3        4.120608e-01
        26         3       -5.881763e-01
        27         3        2.414521e-01
        28         3        1.040249e+00
        29         3       -6.297871e-01
        30         3        6.765692e-01
        31         3       -2.553976e+00
        32         3       -1.537102e+00
        33         3       -2.649246e-01
        34         3       -1.366071e+00
        35         3       -1.103512e+00
        36         3       -3.893812e-01
        37         3        4.863730e-01
        38         3       -7.430573e-01
        39         3       -8.923601e-01
        40         3        4.976548e-01
        41         3       -1.592331e+00
        42         3        6.472406e-01
        43         3        7.190422e-01
        44         3       -1.889112e-02
        45         3       -9.145496e-01
        46         3        6.150011e-01
        47         3       -8.313232e-01
        48         3        1.691622e+00
        49         3       -8.865796e-01
        50         3        1.469383e+00
        51         3        2.155384e-01
        52         3       -6.135108e-01
        53         3       -7.651911e-01
        54         3       -6.026926e-01
        55         3        1.602552e+00
        56         3        2.081140e+00
        57         3        7.572511e-02
        58         3        4.840074e-01
        59         3        8.533514e-01
        60         3        6.981145e-01
        61         3       -1.222122e+00
        62         3       -3.664778e-01
        63         3       -2.783745e-01
        64         3       -8.923623e-01
        65         3       -1.616541e+00
        66         3        5.967129e-01
        67         3        6.158967e-01
        68         3       -6.706697e-02
        69         3       -1.029396e+00
        70         3        7.535903e-01
        71         3       -3.516115e-01
        72         3        6.214960e-01
        73         3       -1.134835e+00
        74         3       -6.420422e-01
        75         3        5.674225e-01
        76         3        2.234409e-01
        77         3        1.991315e-01
        78         3       -6.553110e-01
        79         3        4.812922e-02
        80         3        7.327376e-01
        81         3        1.575953e+00
        82         3       -1.040396e+00
        83         3       -1.295635e+00
        84         3       -4.653838e-01
        85         3       -2.712914e-01
        86         3        1.629923e+00
        87         3       -1.020762e+00
        88         3        1.865851e+00
        89         3        7.174675e-01
        90         3        1.150658e+00
        91         3        1.096507e-01
        92         3        3.231662e-01
        93         3        6.691969e-01
        94         3       -7.985191e-01
        95         3        1.263747e-01
        96         3        1.184342e+00
        97         3        8.221217e-01
        98         3       -7.221238e-01
        99         3        1.642336e+00
       100         3        1.170463e+00
         1         4        1.281860e+00
         2         4        1.936834e+00
         3         4        8.933307e-01
         4         4        8.698283e-02
         5         4        1.111712e-01
         6         4       -7.481859e-01
         7         4        1.801502e+00
         8         4        3.314682e-02
         9         4        7.298850e-01
        10         4        2.275257e-01
        11         4       -8.982173e-01
        12         4        1.033547e+00
        13         4       -1.257792e+00
        14         4       -1.556970e-01
        15         4        1.695810e+00
        16         4       -7.289193e-01
        17         4        9.685800e-01
        18         4        6.352832e-02
        19         4        1.536795e-01
        20         4        5.982928e-01
        21         4       -1.143617e+00
        22         4       -4.410056e-01
        23         4       -6.592972e-01
        24         4        4.771443e-01
        25         4       -1.457608e-01
        26         4       -6.088352e-03
        27         4        4.225257e-01
        28         4       -1.161275e+00
        29         4        2.253035e+00
        30         4       -6.512046e-01
        31         4        1.116402e-01
        32         4       -1.019698e+00
        33         4        2.328064e+00
        34         4       -1.396749e+00
        35         4        3.603873e-01
        36         4       -3.028981e-01
        37         4        3.564741e-01
        38         4       -5.152211e-01
        39         4        4.119879e-01
        40         4       -1.681776e+00
        41         4        1.430440e-01
        42         4       -2.247788e-01
        43         4        5.976178e-01
        44         4       -7.960666e-01
        45         4        1.642333e+00
        46         4        1.161868e+00
        47         4       -4.761079e-01
        48         4       -1.135256e+00
        49         4        7.565146e-02
        50         4       -3.919115e-01
        51         4        8.584276e-01
        52         4       -7.492511e-01
        53         4        1.560692e+00
        54         4        1.485818e+00
        55         4        6.423718e-01
        56         4       -1.170512e+00
        57         4        2.611426e-02
        58         4        3.341744e-01
        59         4       -1.574645e+00
        60         4       -1.484254e+00
        61         4       -6.257156e-01
        62         4       -3.003491e-01
        63         4        7.113660e-02
        64         4       -5.518668e-01
        65         4        6.617896e-01
        66         4       -4.188694e-01
        67         4        1.088804e+00
        68         4        5.887590e-01
        69         4       -1.069168e+00
        70         4        9.892274e-01
        71         4        2.864044e-01
        72         4        7.004212e-01
        73         4        5.630023e-01
        74         4        2.248375e+00
        75         4        1.871916e+00
        76         4        1.401736e+00
        77         4       -4.003839e-01
        78         4       -2.183096e+00
        79         4       -6.594135e-01
        80         4        6.546557e-01
        81         4        4.168326e-01
        82         4        5.878718e-01
        83         4        1.441018e+00
        84         4       -8.954850e-01
        85         4       -1.240385e+00
        86         4        2.669221e-01
        87         4        5.300554e-02
        88         4       -2.487487e-01
        89         4        6.302455e-01
        90         4       -5.196438e-01
        91         4       -5.929510e-01
        92         4        4.859577e-01
        93         4       -8.904990e-01
        94         4        1.001688e-01
        95         4       -4.199213e-01
        96         4       -9.229355e-02
        97         4        5.484058e-01
        98         4        7.080561e-01
        99         4        2.473855e-01
       100         4       -6.182507e-01
         1         5       -6.556404e-02
         2         5        6.378754e-01
         3         5       -8.643134e-01
         4         5       -5.643536e-02
         5         5        1.647333e-01
         6         5       -1.547013e+00
         7         5        1.088573e+00
         8         5        1.489324e+00
         9         5        1.407684e+00
        10         5       -1.902290e+00
        11         5       -9.122543e-01
        12         5       -1.659097e-01
        13         5       -3.887566e-01
        14         5        6.622478e-01
        15         5       -3.071362e-01
        16         5       -1.021277e+00
        17         5       -4.755728e-02
        18         5       -2.513367e-01
        19         5        1.611999e+00
        20         5       -8.523517e-01
        21         5        5.240546e-01
        22         5        1.524062e+00
        23         5       -1.560677e+00
        24         5       -1.989331e-02
        25         5        1.656525e+00
        26         5        5.227852e-01
        27         5       -9.744036e-01
        28         5        8.257660e-01
        29         5        7.046425e-02
        30         5       -7.850402e-02
        31         5       -5.859926e-01
        32         5        4.070154e-01
        33         5       -9.760323e-01
        34         5        1.617412e-01
        35         5        3.422898e-01
        36         5       -5.908847e-01
        37         5        2.064962e+00
        38         5        5.107154e-02
        39         5        8.417956e-01
        40         5       -8.676141e-01
        41         5        7.769050e-01
        42         5        3.420707e-01
        43         5        7.302030e-01
        44         5       -7.364610e-01
        45         5        2.225017e-01
        46         5       -7.115237e-01
        47         5        5.193069e-01
        48         5        4.633347e-01
        49         5       -4.712262e-01
        50         5        5.080013e-01
        51         5        3.631171e-01
        52         5       -7.209242e-01
        53         5        1.508641e+00
        54         5        8.780513e-01
        55         5       -1.550127e+00
        56         5        1.029996e+00
        57         5       -1.201851e-01
        58         5       -9.444727e-02
        59         5        5.294723e-01
        60         5       -6.814813e-02
        61         5       -3.789875e-01
        62         5        9.529772e-01
        63         5        6.881903e-01
        64         5       -7.527201e-01
        65         5       -3.850644e-02
        66         5        7.852576e-01
        67         5       -6.087251e-02
        68         5       -1.559695e+00
        69         5        1.472160e-01
        70         5        3.923279e-01
        71         5       -2.623109e-01
        72         5       -1.096161e+00
        73         5       -5.221693e-01
        74         5       -8.100334e-01
        75         5        1.039455e+00
        76         5        1.054915e+00
        77         5       -2.016532e+00
        78         5        8.359404e-01
        79         5        6.475616e-01
        80         5        3.545623e-01
        81         5        8.918313e-01
        82         5        2.411549e-01
        83         5        1.487821e+00
        84         5        1.570590e-01
        85         5        1.004028e+00
        86         5       -1.634848e-01
        87         5       -3.732816e-01
        88         5        1.321726e+00
        89         5        1.284746e+00
        90         5       -1.478950e+00
        91         5        8.601533e-01
        92         5       -7.447084e-01
        93         5        4.087681e-01
        94         5        4.512183e-02
        95         5        8.750736e-01
        96         5        7.205646e-01
        97         5       -1.903809e+00
        98         5        1.261761e-01
        99         5        1.028522e+00
       100         5       -5.559123e-01
;

param theta:=
    1        1.022925e+00
    2       -3.489522e-01
    3        1.117949e-01
    4        2.000467e-01
    5        9.430279e-01
;
param X_true:=
    1       -8.874638e-01
    2        5.278210e-01
    3       -4.780538e-02
    4       -1.263400e+00
    5       -1.611396e+00
    6       -1.766054e+00
    7        1.512294e+00
    8       -7.819902e-01
    9        2.910705e+00
   10       -2.710146e+00
   11        3.972514e-01
   12        3.363900e-01
   13        4.662721e-01
   14        1.486794e+00
   15        3.056429e-01
   16       -1.582959e+00
   17        6.232328e-01
   18        9.242022e-01
   19        7.758591e-01
   20        7.123623e-01
   21        1.869678e+00
   22        2.085753e+00
   23       -2.660633e-01
   24        2.660336e-01
   25        1.030260e+00
   26       -3.062812e-01
   27       -5.860754e-01
   28        9.085161e-01
   29       -6.468203e-01
   30       -1.932103e+00
   31       -2.984274e+00
   32       -2.676355e-01
   33       -1.020325e+00
   34        3.008188e+00
   35       -6.742765e-02
   36       -1.418053e-01
   37        2.287221e+00
   38       -1.212909e+00
   39        9.554806e-01
   40       -3.450011e-01
   41        1.668857e+00
   42        3.081545e+00
   43        9.117265e-01
   44       -3.434051e-01
   45       -4.293467e-01
   46       -2.140702e+00
   47       -9.525163e-02
   48        1.049067e+00
   49       -1.113192e+00
   50        4.178838e-01
   51        6.164250e-01
   52       -7.187630e-01
   53        1.002257e+00
   54        8.708431e-01
   55       -1.198048e+00
   56        4.476409e-01
   57       -8.115793e-01
   58        8.938475e-01
   59        6.653723e-01
   60        5.559217e-01
   61       -1.719078e+00
   62       -3.629091e-01
   63       -2.124859e-01
   64        2.180304e-01
   65        2.065121e+00
   66        1.466078e+00
   67        1.028050e+00
   68        2.470254e-01
   69       -6.355281e-01
   70       -4.306792e-01
   71       -2.119526e+00
   72       -1.139983e+00
   73       -1.339962e+00
   74        6.685773e-01
   75        1.977312e+00
   76        1.307993e+00
   77       -2.263824e+00
   78       -1.395573e-01
   79        2.952606e-01
   80       -1.136983e+00
   81       -5.714973e-01
   82       -1.382341e+00
   83        1.835823e+00
   84        7.829269e-01
   85        1.027217e+00
   86       -1.258062e+00
   87       -1.762646e+00
   88        1.660929e+00
   89        1.655611e+00
   90       -1.377077e+00
   91        1.447282e+00
   92       -1.133203e+00
   93        1.491704e+00
   94        1.555655e-01
   95        1.425624e+00
   96       -2.130991e-01
   97       -2.077801e-01
   98        6.023140e-01
   99        2.249656e+00
  100        8.683345e-01
;
param X:=
    1       -8.874638e-01
    2        5.278210e-01
    3       -4.780538e-02
    4       -1.263400e+00
    5       -1.611396e+00
    6       -1.766054e+00
    7        1.512294e+00
    8       -7.819902e-01
    9        2.910705e+00
   10       -2.710146e+00
   11        3.972514e-01
   12        3.363900e-01
   13        4.662721e-01
   14        1.486794e+00
   15        3.056429e-01
   16       -1.582959e+00
   17        6.232328e-01
   18        9.242022e-01
   19        7.758591e-01
   20        7.123623e-01
   21        1.869678e+00
   22        2.085753e+00
   23       -2.660633e-01
   24       -2.216574e+00
   25        1.030260e+00
   26       -3.062812e-01
   27       -5.860754e-01
   28        9.085161e-01
   29       -6.468203e-01
   30       -1.932103e+00
   31       -2.984274e+00
   32       -2.676355e-01
   33       -1.020325e+00
   34        3.008188e+00
   35       -6.742765e-02
   36       -1.418053e-01
   37        2.287221e+00
   38       -1.212909e+00
   39        9.554806e-01
   40        1.068064e+00
   41        1.668857e+00
   42        3.081545e+00
   43        9.117265e-01
   44       -3.434051e-01
   45       -4.293467e-01
   46       -2.140702e+00
   47       -9.525163e-02
   48       -7.678056e-01
   49       -5.185062e-01
   50        4.178838e-01
   51       -9.441007e-01
   52       -7.187630e-01
   53        1.002257e+00
   54        8.708431e-01
   55       -1.198048e+00
   56        4.476409e-01
   57       -8.115793e-01
   58        8.938475e-01
   59        6.653723e-01
   60        5.559217e-01
   61       -1.719078e+00
   62       -3.629091e-01
   63       -2.124859e-01
   64        2.180304e-01
   65        2.065121e+00
   66        1.466078e+00
   67        2.660120e-01
   68        2.470254e-01
   69       -1.604445e+00
   70       -4.306792e-01
   71       -2.119526e+00
   72       -1.139983e+00
   73       -1.339962e+00
   74        6.685773e-01
   75        1.977312e+00
   76        1.307993e+00
   77       -2.263824e+00
   78       -1.395573e-01
   79        2.952606e-01
   80       -1.136983e+00
   81       -5.714973e-01
   82       -1.382341e+00
   83        1.835823e+00
   84        7.829269e-01
   85        1.027217e+00
   86        1.631802e+00
   87       -4.254397e-01
   88        1.660929e+00
   89        1.655611e+00
   90       -1.377077e+00
   91        1.447282e+00
   92       -1.133203e+00
   93        1.491704e+00
   94        1.555655e-01
   95        1.425624e+00
   96       -8.931927e-01
   97       -2.077801e-01
   98        6.023140e-01
   99        2.249656e+00
  100        8.683345e-01
;
param outliervec:=
    1    0
    2    0
    3    0
    4    0
    5    0
    6    0
    7    0
    8    0
    9    0
   10    0
   11    0
   12    0
   13    0
   14    0
   15    0
   16    0
   17    0
   18    0
   19    0
   20    0
   21    0
   22    0
   23    0
   24    1
   25    0
   26    0
   27    0
   28    0
   29    0
   30    0
   31    0
   32    0
   33    0
   34    0
   35    0
   36    0
   37    0
   38    0
   39    0
   40    1
   41    0
   42    0
   43    0
   44    0
   45    0
   46    0
   47    0
   48    1
   49    1
   50    0
   51    1
   52    0
   53    0
   54    0
   55    0
   56    0
   57    0
   58    0
   59    0
   60    0
   61    0
   62    0
   63    0
   64    0
   65    0
   66    0
   67    1
   68    0
   69    1
   70    0
   71    0
   72    0
   73    0
   74    0
   75    0
   76    0
   77    0
   78    0
   79    0
   80    0
   81    0
   82    0
   83    0
   84    0
   85    0
   86    1
   87    1
   88    0
   89    0
   90    0
   91    0
   92    0
   93    0
   94    0
   95    0
   96    1
   97    0
   98    0
   99    0
  100    0
;